
Gurobi 9.1.2 (win64, Java) logging started Fri Nov 12 12:13:01 2021

Academic license - for non-commercial use only - expires 2022-10-30
Gurobi Optimizer version 9.1.2 build v9.1.2rc0 (win64)
Thread count: 6 physical cores, 12 logical processors, using up to 12 threads
Optimize a model with 40 rows, 400 columns and 800 nonzeros
Model fingerprint: 0x31b02e18
Variable types: 0 continuous, 400 integer (400 binary)
Coefficient statistics:
  Matrix range     [1e+00, 1e+03]
  Objective range  [4e+01, 8e+02]
  Bounds range     [1e+00, 1e+00]
  RHS range        [1e+00, 4e+02]
Found heuristic solution: objective 2328.0000000
Presolve removed 23 rows and 352 columns
Presolve time: 0.01s
Presolved: 17 rows, 48 columns, 96 nonzeros
Variable types: 0 continuous, 48 integer (48 binary)
Presolved: 17 rows, 48 columns, 96 nonzeros


Root relaxation: objective 2.793000e+03, 7 iterations, 0.00 seconds

    Nodes    |    Current Node    |     Objective Bounds      |     Work
 Expl Unexpl |  Obj  Depth IntInf | Incumbent    BestBd   Gap | It/Node Time

*    0     0               0    2793.0000000 2793.00000  0.00%     -    0s

Explored 0 nodes (7 simplex iterations) in 0.02 seconds
Thread count was 12 (of 12 available processors)

Solution count 2: 2793 2328 

Optimal solution found (tolerance 1.00e-12)
Best objective 2.793000000000e+03, best bound 2.793000000000e+03, gap 0.0000%
